n_machines = 3;
n_resources = 4;
n_jobs = 80;
horizon = 44446;
LB = 14815;
n_jobs_per_resource = [20, 20, 20, 20];
duration = [660, 73, 528, 641, 413, 521, 482, 608, 945, 763, 949, 682, 187, 939, 495, 22, 589, 875, 266, 258, 544, 266, 356, 416, 722, 679, 878, 806, 186, 257, 538, 16, 823, 805, 79, 876, 846, 34, 890, 842, 298, 148, 946, 806, 198, 899, 525, 324, 78, 527, 457, 878, 460, 866, 610, 676, 758, 306, 818, 25, 500, 986, 288, 847, 903, 333, 583, 870, 957, 614, 278, 966, 858, 742, 520, 566, 272, 627, 98, 280]